NAME: Random_45_2
ELLAPSED_TIME_(ms): 0
TOUR_SIZE: 1030.7433
TOUR_SECTION
0
1
3
19
44
41
18
22
11
14
25
24
17
9
36
40
12
5
6
7
2
26
42
4
20
27
8
28
33
35
23
34
21
43
39
37
38
16
29
32
30
10
15
13
31
0
EOF
